experiment/data/hgs-res/Vrp-Set-Li-n761/Vrp-Set-Li-n761-hgs/0.hgs1.log
=========== Algorithm Parameters =================
---- nbGranular        is set to 20
---- mu                is set to 25
---- lambda            is set to 40
---- nbElite           is set to 4
---- nbClose           is set to 5
---- targetFeasible    is set to 0.2
---- seed              is set to 1234
---- nbIter            is set to 20000
---- timeLimit         is set to 0
---- useSwapStar       is set to 1
==================================================
----- READING INSTANCE: baseline_results/cvrp_hgs/Vrp-Set-Li-n761/Vrp-Set-Li-n761-hgs/0.hgs1.vrp
----- FLEET SIZE WAS NOT SPECIFIED: DEFAULT INITIALIZATION TO 25 VEHICLES
----- INSTANCE SUCCESSFULLY LOADED WITH 760 CLIENTS AND 25 VEHICLES
----- BUILDING INITIAL POPULATION
----- STARTING GENETIC ALGORITHM
It      0      2 | T(s) 3.64 | Feas 60 16198.60 16305.24 | NO-INFEASIBLE | Div 0.51 -1.00 | Feas 1.00 1.00 | Pen 17.00 0.85
It    500     20 | T(s) 14.35 | Feas 27 15819.30 15981.62 | NO-INFEASIBLE | Div 0.45 -1.00 | Feas 1.00 1.00 | Pen 7.54 0.38
It   1000    127 | T(s) 25.55 | Feas 35 15762.98 15884.19 | NO-INFEASIBLE | Div 0.42 -1.00 | Feas 1.00 1.00 | Pen 3.35 0.17
It   1500    253 | T(s) 36.98 | Feas 37 15685.57 15852.89 | Inf 9 16017.83 16100.15 | Div 0.43 0.41 | Feas 0.94 1.00 | Pen 1.49 0.10
It   2000    223 | T(s) 48.46 | Feas 45 15645.62 15735.53 | Inf 45 15683.49 15860.13 | Div 0.36 0.39 | Feas 0.73 1.00 | Pen 0.66 0.10
It   2500     19 | T(s) 61.07 | Feas 34 15563.01 15683.69 | Inf 33 15537.52 15657.56 | Div 0.42 0.41 | Feas 0.24 1.00 | Pen 0.49 0.10
It   3000    206 | T(s) 74.38 | Feas 29 15510.21 15638.47 | Inf 26 15480.14 15648.66 | Div 0.42 0.43 | Feas 0.14 1.00 | Pen 0.50 0.10
It   3500    431 | T(s) 88.46 | Feas 38 15431.41 15606.19 | Inf 33 15416.15 15563.12 | Div 0.41 0.40 | Feas 0.16 1.00 | Pen 0.43 0.10
It   4000    357 | T(s) 102.11 | Feas 59 15398.36 15503.30 | Inf 56 15362.83 15494.76 | Div 0.36 0.35 | Feas 0.14 1.00 | Pen 0.54 0.10
It   4500     18 | T(s) 115.42 | Feas 58 15334.32 15459.95 | Inf 33 15337.97 15407.58 | Div 0.32 0.29 | Feas 0.17 1.00 | Pen 0.46 0.10
It   5000     62 | T(s) 129.36 | Feas 32 15330.22 15418.47 | Inf 60 15296.07 15364.00 | Div 0.33 0.28 | Feas 0.25 1.00 | Pen 0.47 0.10
It   5500     50 | T(s) 143.23 | Feas 54 15204.32 15324.58 | Inf 49 15194.85 15309.59 | Div 0.26 0.26 | Feas 0.20 1.00 | Pen 0.48 0.10
It   6000    370 | T(s) 157.01 | Feas 48 15173.98 15261.78 | Inf 40 15156.93 15239.16 | Div 0.23 0.25 | Feas 0.23 1.00 | Pen 0.42 0.10
It   6500     39 | T(s) 171.24 | Feas 32 15165.84 15238.43 | Inf 43 15179.27 15248.45 | Div 0.25 0.26 | Feas 0.24 1.00 | Pen 0.51 0.10
It   7000    539 | T(s) 185.08 | Feas 55 15165.84 15242.98 | Inf 38 15146.05 15216.13 | Div 0.26 0.26 | Feas 0.07 1.00 | Pen 0.53 0.10
It   7500    390 | T(s) 199.21 | Feas 56 15139.10 15180.39 | Inf 36 15146.26 15194.93 | Div 0.23 0.25 | Feas 0.20 1.00 | Pen 0.54 0.10
It   8000    890 | T(s) 216.37 | Feas 47 15139.10 15168.20 | Inf 27 15136.60 15229.53 | Div 0.23 0.29 | Feas 0.15 1.00 | Pen 0.56 0.10
It   8500    140 | T(s) 230.02 | Feas 55 15119.67 15187.41 | Inf 33 15127.91 15207.07 | Div 0.25 0.27 | Feas 0.20 1.00 | Pen 0.48 0.10
It   9000    640 | T(s) 243.40 | Feas 33 15119.67 15152.37 | Inf 59 15113.58 15146.16 | Div 0.23 0.21 | Feas 0.22 1.00 | Pen 0.50 0.10
It   9500    411 | T(s) 256.68 | Feas 29 15118.55 15162.33 | Inf 47 15110.42 15148.28 | Div 0.23 0.21 | Feas 0.24 1.00 | Pen 0.50 0.10
It  10000     24 | T(s) 270.13 | Feas 57 15107.65 15149.74 | Inf 40 15110.72 15188.90 | Div 0.22 0.25 | Feas 0.23 1.00 | Pen 0.51 0.10
It  10500     55 | T(s) 283.75 | Feas 37 15100.84 15150.12 | Inf 27 15110.72 15149.20 | Div 0.23 0.24 | Feas 0.25 1.00 | Pen 0.51 0.10
It  11000    555 | T(s) 296.27 | Feas 58 15100.84 15133.10 | Inf 37 15107.98 15147.63 | Div 0.21 0.23 | Feas 0.29 1.00 | Pen 0.43 0.10
It  11500   1055 | T(s) 308.37 | Feas 41 15100.84 15132.64 | Inf 57 15108.16 15130.91 | Div 0.22 0.21 | Feas 0.30 1.00 | Pen 0.45 0.10
It  12000   1555 | T(s) 321.61 | Feas 52 15100.84 15126.93 | Inf 50 15108.34 15167.48 | Div 0.20 0.24 | Feas 0.26 1.00 | Pen 0.47 0.10
It  12500    180 | T(s) 334.30 | Feas 50 15098.15 15116.40 | Inf 26 15102.42 15208.82 | Div 0.19 0.28 | Feas 0.18 1.00 | Pen 0.49 0.10
It  13000    293 | T(s) 346.87 | Feas 62 15093.27 15106.49 | Inf 64 15099.86 15133.96 | Div 0.15 0.21 | Feas 0.11 1.00 | Pen 0.50 0.10
It  13500    228 | T(s) 359.65 | Feas 52 15092.79 15108.48 | Inf 48 15090.13 15129.26 | Div 0.16 0.22 | Feas 0.22 1.00 | Pen 0.51 0.10
It  14000    728 | T(s) 372.52 | Feas 56 15092.79 15115.41 | Inf 52 15081.04 15106.48 | Div 0.19 0.19 | Feas 0.30 1.00 | Pen 0.44 0.10
It  14500     22 | T(s) 386.06 | Feas 45 15089.98 15120.03 | Inf 45 15081.57 15105.80 | Div 0.20 0.18 | Feas 0.27 1.00 | Pen 0.46 0.10
It  15000    394 | T(s) 400.94 | Feas 36 15083.27 15110.85 | Inf 29 15084.17 15120.69 | Div 0.19 0.21 | Feas 0.39 1.00 | Pen 0.57 0.10
It  15500    103 | T(s) 413.26 | Feas 28 15078.88 15104.64 | Inf 53 15084.41 15104.91 | Div 0.19 0.18 | Feas 0.15 1.00 | Pen 0.60 0.10
It  16000     20 | T(s) 425.20 | Feas 31 15076.32 15099.82 | Inf 32 15081.25 15099.85 | Div 0.17 0.17 | Feas 0.30 1.00 | Pen 0.52 0.10
It  16500    520 | T(s) 437.35 | Feas 44 15076.32 15117.49 | Inf 58 15076.31 15102.53 | Div 0.19 0.18 | Feas 0.17 1.00 | Pen 0.52 0.10
It  17000    396 | T(s) 449.68 | Feas 26 15066.04 15126.53 | Inf 51 15070.52 15099.51 | Div 0.23 0.18 | Feas 0.20 1.00 | Pen 0.52 0.10
It  17500      7 | T(s) 462.24 | Feas 32 15061.04 15136.02 | Inf 32 15070.73 15144.84 | Div 0.24 0.24 | Feas 0.37 1.00 | Pen 0.54 0.10
It  18000    246 | T(s) 475.18 | Feas 56 15057.39 15107.69 | Inf 51 15059.39 15095.57 | Div 0.20 0.19 | Feas 0.24 1.00 | Pen 0.55 0.10
It  18500    746 | T(s) 487.83 | Feas 57 15057.39 15091.70 | Inf 37 15058.76 15107.70 | Div 0.19 0.22 | Feas 0.27 1.00 | Pen 0.49 0.10
It  19000    123 | T(s) 500.37 | Feas 46 15050.58 15070.62 | Inf 31 15059.97 15107.50 | Div 0.16 0.21 | Feas 0.15 1.00 | Pen 0.61 0.10
It  19500    443 | T(s) 512.18 | Feas 43 15049.03 15070.79 | Inf 51 15051.89 15090.36 | Div 0.17 0.19 | Feas 0.18 1.00 | Pen 0.53 0.10
It  20000    239 | T(s) 524.84 | Feas 35 15047.87 15080.94 | Inf 54 15050.54 15085.76 | Div 0.19 0.19 | Feas 0.13 1.00 | Pen 0.64 0.10
It  20500    739 | T(s) 537.12 | Feas 51 15047.87 15079.29 | Inf 63 15048.75 15073.62 | Div 0.19 0.17 | Feas 0.07 1.00 | Pen 0.57 0.10
It  21000      6 | T(s) 548.97 | Feas 35 15047.40 15063.96 | Inf 38 15046.44 15071.52 | Div 0.16 0.16 | Feas 0.30 1.00 | Pen 0.50 0.10
It  21500    388 | T(s) 561.06 | Feas 45 15044.79 15072.37 | Inf 54 15046.64 15070.36 | Div 0.17 0.16 | Feas 0.24 1.00 | Pen 0.52 0.10
It  22000    888 | T(s) 573.49 | Feas 30 15044.79 15084.12 | Inf 54 15043.72 15084.28 | Div 0.19 0.19 | Feas 0.20 1.00 | Pen 0.53 0.10
It  22500     96 | T(s) 586.35 | Feas 32 15040.53 15068.49 | Inf 38 15043.82 15076.95 | Div 0.18 0.19 | Feas 0.21 1.00 | Pen 0.54 0.10
It  23000    196 | T(s) 599.06 | Feas 41 15038.20 15068.63 | Inf 53 15043.01 15079.12 | Div 0.17 0.19 | Feas 0.28 1.00 | Pen 0.46 0.10
It  23500    696 | T(s) 611.36 | Feas 32 15038.20 15059.90 | Inf 53 15042.96 15071.41 | Div 0.17 0.17 | Feas 0.17 1.00 | Pen 0.56 0.10
It  24000     71 | T(s) 623.25 | Feas 35 15037.46 15047.96 | Inf 38 15043.19 15077.53 | Div 0.14 0.18 | Feas 0.34 1.00 | Pen 0.57 0.10
It  24500    124 | T(s) 634.38 | Feas 36 15036.61 15049.37 | Inf 57 15037.68 15065.53 | Div 0.14 0.17 | Feas 0.32 1.00 | Pen 0.49 0.10
It  25000    212 | T(s) 646.15 | Feas 27 15031.83 15084.39 | Inf 46 15030.67 15058.74 | Div 0.20 0.16 | Feas 0.18 1.00 | Pen 0.50 0.10
It  25500    712 | T(s) 658.07 | Feas 56 15031.83 15047.39 | Inf 43 15030.87 15053.60 | Div 0.13 0.15 | Feas 0.26 1.00 | Pen 0.51 0.10
It  26000     85 | T(s) 669.23 | Feas 32 15030.07 15043.96 | Inf 45 15032.26 15044.42 | Div 0.13 0.12 | Feas 0.14 1.00 | Pen 0.61 0.10
It  26500    585 | T(s) 680.34 | Feas 31 15030.07 15047.67 | Inf 63 15027.44 15042.56 | Div 0.13 0.12 | Feas 0.25 1.00 | Pen 0.52 0.10
It  27000   1085 | T(s) 690.87 | Feas 33 15030.07 15038.92 | Inf 51 15027.55 15059.81 | Div 0.13 0.15 | Feas 0.24 1.00 | Pen 0.53 0.10
It  27500    112 | T(s) 705.35 | Feas 43 15024.35 15054.85 | Inf 49 15024.57 15044.31 | Div 0.16 0.15 | Feas 0.29 1.00 | Pen 0.55 0.10
It  28000    612 | T(s) 721.77 | Feas 49 15024.35 15036.90 | Inf 60 15023.84 15046.84 | Div 0.13 0.15 | Feas 0.28 1.00 | Pen 0.48 0.10
It  28500    433 | T(s) 732.96 | Feas 58 15023.94 15035.78 | Inf 35 15024.03 15041.12 | Div 0.13 0.14 | Feas 0.34 1.00 | Pen 0.50 0.10
It  29000     11 | T(s) 743.37 | Feas 59 15022.81 15028.44 | Inf 59 15024.13 15034.19 | Div 0.10 0.11 | Feas 0.20 1.00 | Pen 0.51 0.10
It  29500     58 | T(s) 753.58 | Feas 57 15021.09 15027.84 | Inf 31 15020.40 15039.14 | Div 0.10 0.13 | Feas 0.21 1.00 | Pen 0.53 0.10
It  30000    558 | T(s) 763.32 | Feas 56 15021.09 15027.56 | Inf 64 15020.51 15027.73 | Div 0.10 0.09 | Feas 0.25 1.00 | Pen 0.54 0.10
It  30500     93 | T(s) 773.13 | Feas 30 15019.14 15035.52 | Inf 64 15019.39 15027.28 | Div 0.12 0.09 | Feas 0.05 1.00 | Pen 0.56 0.10
It  31000     66 | T(s) 782.72 | Feas 44 15013.95 15023.28 | Inf 29 15018.74 15027.91 | Div 0.09 0.11 | Feas 0.40 1.00 | Pen 0.50 0.10
It  31500    566 | T(s) 792.47 | Feas 43 15013.95 15021.25 | Inf 60 15018.74 15025.22 | Div 0.08 0.09 | Feas 0.22 1.00 | Pen 0.50 0.10
It  32000    163 | T(s) 801.82 | Feas 53 15013.54 15019.74 | Inf 45 15012.89 15024.30 | Div 0.07 0.10 | Feas 0.30 1.00 | Pen 0.43 0.10
It  32500    663 | T(s) 811.52 | Feas 28 15013.54 15028.56 | Inf 54 15013.85 15020.01 | Div 0.10 0.07 | Feas 0.01 1.00 | Pen 0.53 0.10
It  33000    420 | T(s) 820.56 | Feas 52 15013.54 15016.20 | Inf 44 15013.24 15020.00 | Div 0.05 0.08 | Feas 0.31 1.00 | Pen 0.47 0.10
It  33500    166 | T(s) 829.87 | Feas 42 15012.94 15015.99 | Inf 46 15014.40 15018.39 | Div 0.06 0.07 | Feas 0.08 1.00 | Pen 0.58 0.10
It  34000    436 | T(s) 839.05 | Feas 37 15011.72 15020.59 | Inf 60 15013.56 15026.35 | Div 0.09 0.10 | Feas 0.19 1.00 | Pen 0.50 0.10
It  34500    936 | T(s) 848.72 | Feas 57 15011.72 15020.90 | Inf 51 15013.66 15020.35 | Div 0.09 0.09 | Feas 0.25 1.00 | Pen 0.51 0.10
It  35000   1436 | T(s) 858.32 | Feas 50 15011.72 15017.42 | Inf 48 15012.56 15019.46 | Div 0.07 0.08 | Feas 0.00 1.00 | Pen 0.54 0.10
It  35500    293 | T(s) 867.31 | Feas 29 15011.33 15018.19 | Inf 41 15011.71 15024.63 | Div 0.09 0.10 | Feas 0.35 1.00 | Pen 0.47 0.10
It  36000    793 | T(s) 876.86 | Feas 47 15011.33 15015.82 | Inf 38 15011.35 15029.37 | Div 0.08 0.11 | Feas 0.09 1.00 | Pen 0.59 0.10
It  36500    467 | T(s) 886.66 | Feas 38 15010.40 15030.22 | Inf 59 15010.41 15029.36 | Div 0.12 0.12 | Feas 0.23 1.00 | Pen 0.51 0.10
It  37000     70 | T(s) 896.79 | Feas 29 15010.30 15035.91 | Inf 39 15010.62 15038.88 | Div 0.14 0.14 | Feas 0.29 1.00 | Pen 0.53 0.10
It  37500    570 | T(s) 908.14 | Feas 61 15010.30 15016.11 | Inf 26 15009.82 15049.43 | Div 0.09 0.16 | Feas 0.30 1.00 | Pen 0.45 0.10
It  38000    133 | T(s) 918.31 | Feas 46 15010.14 15023.71 | Inf 62 15010.95 15027.84 | Div 0.12 0.12 | Feas 0.04 1.00 | Pen 0.57 0.10
It  38500    633 | T(s) 928.38 | Feas 25 15010.14 15030.75 | Inf 54 15010.82 15022.37 | Div 0.13 0.10 | Feas 0.14 1.00 | Pen 0.59 0.10
It  39000    447 | T(s) 941.58 | Feas 59 15008.90 15023.97 | Inf 62 15009.87 15017.62 | Div 0.12 0.10 | Feas 0.17 1.00 | Pen 0.51 0.10
It  39500    947 | T(s) 955.51 | Feas 26 15008.90 15024.57 | Inf 58 15009.37 15019.74 | Div 0.13 0.11 | Feas 0.19 1.00 | Pen 0.51 0.10
It  40000     29 | T(s) 965.61 | Feas 27 15008.09 15024.43 | Inf 32 15008.69 15025.37 | Div 0.13 0.13 | Feas 0.26 1.00 | Pen 0.44 0.10
It  40500    529 | T(s) 975.78 | Feas 38 15008.09 15024.47 | Inf 33 15009.13 15020.90 | Div 0.12 0.12 | Feas 0.20 1.00 | Pen 0.53 0.10
It  41000   1029 | T(s) 985.61 | Feas 54 15008.09 15017.74 | Inf 65 15007.86 15023.32 | Div 0.10 0.12 | Feas 0.16 1.00 | Pen 0.53 0.10
It  41500     65 | T(s) 995.69 | Feas 54 15007.52 15022.69 | Inf 40 15007.97 15033.46 | Div 0.12 0.13 | Feas 0.17 1.00 | Pen 0.54 0.10
It  42000    565 | T(s) 1008.50 | Feas 53 15007.52 15012.64 | Inf 47 15008.19 15016.85 | Div 0.09 0.11 | Feas 0.24 1.00 | Pen 0.56 0.10
It  42500   1065 | T(s) 1022.23 | Feas 63 15007.52 15010.97 | Inf 48 15008.42 15014.77 | Div 0.08 0.10 | Feas 0.10 1.00 | Pen 0.59 0.10
It  43000    263 | T(s) 1035.58 | Feas 44 15006.54 15011.49 | Inf 26 15007.54 15031.38 | Div 0.09 0.14 | Feas 0.21 1.00 | Pen 0.50 0.10
It  43500    337 | T(s) 1045.81 | Feas 30 15005.94 15013.67 | Inf 64 15007.64 15011.80 | Div 0.10 0.09 | Feas 0.04 1.00 | Pen 0.51 0.10
It  44000    837 | T(s) 1055.18 | Feas 28 15005.94 15012.28 | Inf 48 15007.60 15011.61 | Div 0.10 0.09 | Feas 0.24 1.00 | Pen 0.51 0.10
It  44500   1337 | T(s) 1064.90 | Feas 28 15005.94 15013.93 | Inf 37 15007.70 15018.29 | Div 0.10 0.10 | Feas 0.19 1.00 | Pen 0.52 0.10
It  45000   1837 | T(s) 1074.68 | Feas 47 15005.94 15010.02 | Inf 27 15007.80 15040.18 | Div 0.09 0.13 | Feas 0.21 1.00 | Pen 0.53 0.10
It  45500   2337 | T(s) 1084.13 | Feas 56 15005.94 15008.53 | Inf 28 15008.01 15024.57 | Div 0.07 0.12 | Feas 0.03 1.00 | Pen 0.55 0.10
It  46000   2837 | T(s) 1094.25 | Feas 49 15005.94 15011.97 | Inf 57 15008.12 15015.13 | Div 0.09 0.10 | Feas 0.21 1.00 | Pen 0.56 0.10
It  46500   3337 | T(s) 1103.71 | Feas 30 15005.94 15011.41 | Inf 42 15007.74 15010.84 | Div 0.09 0.08 | Feas 0.05 1.00 | Pen 0.58 0.10
It  47000   3837 | T(s) 1112.86 | Feas 27 15005.94 15017.76 | Inf 54 15006.96 15013.44 | Div 0.11 0.10 | Feas 0.25 1.00 | Pen 0.51 0.10
It  47500   4337 | T(s) 1124.40 | Feas 49 15005.94 15009.18 | Inf 35 15007.17 15012.92 | Div 0.08 0.09 | Feas 0.07 1.00 | Pen 0.53 0.10
It  48000   4837 | T(s) 1136.16 | Feas 25 15005.94 15024.32 | Inf 61 15007.27 15013.83 | Div 0.11 0.09 | Feas 0.21 1.00 | Pen 0.54 0.10
It  48500   5337 | T(s) 1145.38 | Feas 29 15005.94 15008.44 | Inf 45 15007.49 15011.46 | Div 0.08 0.09 | Feas 0.08 1.00 | Pen 0.56 0.10
It  49000   5837 | T(s) 1155.58 | Feas 26 15005.94 15014.20 | Inf 63 15006.83 15009.23 | Div 0.09 0.07 | Feas 0.36 1.00 | Pen 0.49 0.10
It  49500     55 | T(s) 1166.52 | Feas 35 15005.94 15007.79 | Inf 42 15007.03 15007.50 | Div 0.07 0.04 | Feas 0.05 1.00 | Pen 0.51 0.10
It  50000    555 | T(s) 1178.60 | Feas 25 15005.94 15019.07 | Inf 28 15006.42 15011.91 | Div 0.09 0.08 | Feas 0.36 1.00 | Pen 0.45 0.10
It  50500   1055 | T(s) 1190.54 | Feas 62 15005.94 15006.90 | Inf 27 15006.95 15021.18 | Div 0.05 0.09 | Feas 0.10 1.00 | Pen 0.57 0.10
It  51000     15 | T(s) 1201.71 | Feas 43 15005.94 15006.89 | Inf 57 15006.19 15008.20 | Div 0.06 0.05 | Feas 0.35 1.00 | Pen 0.49 0.10
It  51500    515 | T(s) 1213.71 | Feas 58 15005.94 15006.88 | Inf 44 15006.39 15009.81 | Div 0.05 0.07 | Feas 0.03 1.00 | Pen 0.51 0.10
It  52000   1015 | T(s) 1226.29 | Feas 52 15005.94 15006.84 | Inf 60 15005.71 15008.47 | Div 0.05 0.07 | Feas 0.28 1.00 | Pen 0.44 0.10
It  52500     49 | T(s) 1238.92 | Feas 27 15005.93 15012.02 | Inf 31 15006.81 15016.95 | Div 0.09 0.10 | Feas 0.08 1.00 | Pen 0.55 0.10
It  53000    549 | T(s) 1251.90 | Feas 46 15005.93 15007.34 | Inf 30 15006.00 15020.82 | Div 0.07 0.11 | Feas 0.34 1.00 | Pen 0.49 0.10
It  53500   1049 | T(s) 1263.90 | Feas 29 15005.93 15012.57 | Inf 64 15007.22 15030.81 | Div 0.10 0.12 | Feas 0.12 1.00 | Pen 0.61 0.10
It  54000    164 | T(s) 1276.14 | Feas 55 15005.58 15007.48 | Inf 63 15006.41 15016.79 | Div 0.07 0.11 | Feas 0.17 1.00 | Pen 0.53 0.10
It  54500    664 | T(s) 1286.08 | Feas 38 15005.58 15021.19 | Inf 51 15006.41 15016.15 | Div 0.12 0.11 | Feas 0.21 1.00 | Pen 0.53 0.10
It  55000   1164 | T(s) 1296.13 | Feas 37 15005.58 15021.15 | Inf 59 15006.62 15013.95 | Div 0.12 0.10 | Feas 0.03 1.00 | Pen 0.55 0.10
It  55500   1664 | T(s) 1305.63 | Feas 63 15005.58 15010.18 | Inf 47 15006.62 15011.98 | Div 0.09 0.10 | Feas 0.20 1.00 | Pen 0.55 0.10
It  56000    150 | T(s) 1315.15 | Feas 48 15005.34 15010.74 | Inf 30 15005.52 15016.81 | Div 0.10 0.12 | Feas 0.28 1.00 | Pen 0.48 0.10
It  56500    650 | T(s) 1325.36 | Feas 36 15005.34 15010.23 | Inf 62 15005.72 15015.24 | Div 0.10 0.11 | Feas 0.16 1.00 | Pen 0.50 0.10
It  57000    388 | T(s) 1335.43 | Feas 45 15004.55 15015.75 | Inf 46 15005.82 15020.19 | Div 0.11 0.11 | Feas 0.18 1.00 | Pen 0.51 0.10
It  57500    888 | T(s) 1347.98 | Feas 28 15004.55 15035.09 | Inf 29 15002.98 15024.02 | Div 0.15 0.13 | Feas 0.19 1.00 | Pen 0.52 0.10
It  58000   1388 | T(s) 1361.72 | Feas 31 15004.55 15029.13 | Inf 62 15002.98 15017.04 | Div 0.14 0.11 | Feas 0.21 1.00 | Pen 0.52 0.10
It  58500    195 | T(s) 1375.06 | Feas 43 15002.74 15012.73 | Inf 26 15004.01 15018.64 | Div 0.11 0.12 | Feas 0.14 1.00 | Pen 0.62 0.10
It  59000     68 | T(s) 1385.39 | Feas 43 15002.46 15012.64 | Inf 43 15002.38 15018.83 | Div 0.11 0.11 | Feas 0.28 1.00 | Pen 0.46 0.10
It  59500    568 | T(s) 1395.45 | Feas 29 15002.46 15011.13 | Inf 47 15003.30 15012.35 | Div 0.11 0.10 | Feas 0.20 1.00 | Pen 0.56 0.10
It  60000    180 | T(s) 1404.97 | Feas 44 15001.65 15006.75 | Inf 56 15002.55 15009.52 | Div 0.09 0.09 | Feas 0.37 1.00 | Pen 0.49 0.10
It  60500    680 | T(s) 1414.82 | Feas 26 15001.65 15012.25 | Inf 51 14986.09 15009.55 | Div 0.11 0.09 | Feas 0.03 1.00 | Pen 0.51 0.10
It  61000   1180 | T(s) 1425.12 | Feas 51 15001.65 15005.54 | Inf 46 14986.09 15006.53 | Div 0.08 0.08 | Feas 0.20 1.00 | Pen 0.51 0.10
It  61500   1680 | T(s) 1439.14 | Feas 52 15001.65 15005.87 | Inf 25 14994.49 15105.71 | Div 0.08 0.20 | Feas 0.17 1.00 | Pen 0.52 0.10
It  62000   2180 | T(s) 1455.52 | Feas 52 15001.65 15009.86 | Inf 45 15002.14 15029.13 | Div 0.10 0.14 | Feas 0.26 1.00 | Pen 0.46 0.10
It  62500   2680 | T(s) 1469.68 | Feas 41 15001.65 15006.33 | Inf 36 15002.33 15013.32 | Div 0.08 0.10 | Feas 0.30 1.00 | Pen 0.47 0.10
It  63000   3180 | T(s) 1483.16 | Feas 60 15001.65 15009.14 | Inf 60 15002.52 15010.85 | Div 0.09 0.09 | Feas 0.17 1.00 | Pen 0.49 0.10
It  63500   3680 | T(s) 1494.86 | Feas 42 15001.65 15009.58 | Inf 47 15002.26 15008.94 | Div 0.08 0.08 | Feas 0.24 1.00 | Pen 0.50 0.10
It  64000     93 | T(s) 1504.01 | Feas 43 15001.61 15004.28 | Inf 35 15002.13 15010.12 | Div 0.07 0.08 | Feas 0.11 1.00 | Pen 0.52 0.10
It  64500    235 | T(s) 1512.87 | Feas 47 15001.61 15003.07 | Inf 42 15001.52 15006.31 | Div 0.06 0.09 | Feas 0.32 1.00 | Pen 0.46 0.10
It  65000    735 | T(s) 1522.16 | Feas 29 15001.61 15007.84 | Inf 48 15002.67 15009.88 | Div 0.09 0.09 | Feas 0.09 1.00 | Pen 0.58 0.10
It  65500    395 | T(s) 1532.24 | Feas 45 15000.72 15011.31 | Inf 61 15002.79 15020.86 | Div 0.11 0.11 | Feas 0.23 1.00 | Pen 0.59 0.10
It  66000    895 | T(s) 1541.91 | Feas 60 15000.72 15003.84 | Inf 29 15001.24 15014.88 | Div 0.08 0.11 | Feas 0.26 1.00 | Pen 0.44 0.10
It  66500   1395 | T(s) 1551.67 | Feas 28 15000.72 15021.26 | Inf 40 15002.21 15010.81 | Div 0.13 0.10 | Feas 0.21 1.00 | Pen 0.53 0.10
It  67000   1895 | T(s) 1563.75 | Feas 46 15000.72 15006.59 | Inf 60 15001.41 15007.05 | Div 0.09 0.09 | Feas 0.26 1.00 | Pen 0.45 0.10
It  67500   2395 | T(s) 1576.40 | Feas 63 15000.72 15003.27 | Inf 58 15002.32 15005.23 | Div 0.07 0.07 | Feas 0.19 1.00 | Pen 0.54 0.10
It  68000   2895 | T(s) 1585.82 | Feas 47 15000.72 15003.23 | Inf 46 15002.43 15004.62 | Div 0.07 0.07 | Feas 0.09 1.00 | Pen 0.55 0.10
It  68500   3395 | T(s) 1595.03 | Feas 40 15000.72 15005.64 | Inf 62 15001.59 15004.25 | Div 0.09 0.07 | Feas 0.29 1.00 | Pen 0.47 0.10
It  69000   3895 | T(s) 1604.27 | Feas 56 15000.72 15002.62 | Inf 64 15002.65 15006.58 | Div 0.07 0.08 | Feas 0.14 1.00 | Pen 0.58 0.10
It  69500   4395 | T(s) 1613.01 | Feas 56 15000.72 15003.42 | Inf 65 15001.88 15004.10 | Div 0.07 0.07 | Feas 0.22 1.00 | Pen 0.50 0.10
It  70000   4895 | T(s) 1622.07 | Feas 49 15000.72 15002.31 | Inf 59 15001.88 15003.65 | Div 0.06 0.06 | Feas 0.22 1.00 | Pen 0.50 0.10
It  70500   5395 | T(s) 1631.26 | Feas 38 15000.72 15003.31 | Inf 59 15001.98 15006.09 | Div 0.08 0.07 | Feas 0.22 1.00 | Pen 0.51 0.10
It  71000   5895 | T(s) 1640.23 | Feas 48 15000.72 15002.22 | Inf 38 15001.98 15009.82 | Div 0.07 0.09 | Feas 0.24 1.00 | Pen 0.51 0.10
It  71500   6395 | T(s) 1649.27 | Feas 30 15000.72 15002.61 | Inf 32 15001.39 15007.04 | Div 0.07 0.09 | Feas 0.27 1.00 | Pen 0.45 0.10
It  72000   6895 | T(s) 1658.23 | Feas 64 15000.72 15001.53 | Inf 62 15002.40 15005.62 | Div 0.05 0.07 | Feas 0.10 1.00 | Pen 0.55 0.10
It  72500   7395 | T(s) 1667.26 | Feas 53 15000.72 15002.44 | Inf 59 15002.63 15006.32 | Div 0.06 0.08 | Feas 0.14 1.00 | Pen 0.57 0.10
It  73000   7895 | T(s) 1676.49 | Feas 28 15000.72 15004.98 | Inf 48 15002.74 15006.22 | Div 0.08 0.08 | Feas 0.09 1.00 | Pen 0.59 0.10
It  73500   8395 | T(s) 1685.92 | Feas 28 15000.72 15011.36 | Inf 44 15002.86 15007.26 | Div 0.09 0.08 | Feas 0.13 1.00 | Pen 0.60 0.10
It  74000    320 | T(s) 1695.36 | Feas 26 15000.70 15006.95 | Inf 63 15001.96 15003.83 | Div 0.10 0.06 | Feas 0.20 1.00 | Pen 0.51 0.10
It  74500    820 | T(s) 1704.60 | Feas 46 15000.70 15002.08 | Inf 55 15002.17 15008.17 | Div 0.06 0.08 | Feas 0.08 1.00 | Pen 0.53 0.10
It  75000   1320 | T(s) 1713.39 | Feas 59 15000.70 15001.84 | Inf 35 15002.27 15005.76 | Div 0.06 0.08 | Feas 0.24 1.00 | Pen 0.54 0.10
It  75500   1820 | T(s) 1722.48 | Feas 48 15000.70 15001.22 | Inf 57 15001.91 15008.19 | Div 0.05 0.09 | Feas 0.25 1.00 | Pen 0.54 0.10
It  76000   2320 | T(s) 1731.61 | Feas 39 15000.70 15003.42 | Inf 44 15002.01 15007.51 | Div 0.08 0.09 | Feas 0.22 1.00 | Pen 0.55 0.10
It  76500   2820 | T(s) 1741.11 | Feas 65 15000.70 15001.47 | Inf 39 15002.24 15020.53 | Div 0.05 0.12 | Feas 0.12 1.00 | Pen 0.57 0.10
It  77000   3320 | T(s) 1751.01 | Feas 47 15000.70 15004.43 | Inf 61 15002.35 15012.25 | Div 0.08 0.10 | Feas 0.22 1.00 | Pen 0.58 0.10
It  77500   3820 | T(s) 1760.67 | Feas 64 15000.70 15003.02 | Inf 57 15002.58 15010.80 | Div 0.07 0.09 | Feas 0.07 1.00 | Pen 0.61 0.10
It  78000    253 | T(s) 1769.84 | Feas 37 15000.70 15003.23 | Inf 28 15000.90 15017.34 | Div 0.08 0.12 | Feas 0.27 1.00 | Pen 0.44 0.10
It  78500    753 | T(s) 1779.48 | Feas 52 15000.70 15001.47 | Inf 27 15001.77 15014.86 | Div 0.06 0.12 | Feas 0.23 1.00 | Pen 0.53 0.10
It  79000   1253 | T(s) 1792.43 | Feas 43 15000.70 15001.18 | Inf 59 15001.87 15008.18 | Div 0.05 0.09 | Feas 0.22 1.00 | Pen 0.54 0.10
It  79500   1753 | T(s) 1802.89 | Feas 36 15000.70 15001.26 | Inf 44 15001.16 15007.44 | Div 0.05 0.09 | Feas 0.27 1.00 | Pen 0.47 0.10
It  80000   2253 | T(s) 1815.73 | Feas 52 15000.70 15000.84 | Inf 32 15001.35 15010.96 | Div 0.03 0.10 | Feas 0.23 1.00 | Pen 0.48 0.10
It  80500    377 | T(s) 1825.42 | Feas 26 15000.70 15004.99 | Inf 26 15001.44 15037.73 | Div 0.08 0.14 | Feas 0.17 1.00 | Pen 0.49 0.10
It  81000    877 | T(s) 1834.96 | Feas 25 15000.70 15002.51 | Inf 36 15000.79 15015.65 | Div 0.06 0.12 | Feas 0.27 1.00 | Pen 0.43 0.10
It  81500   1377 | T(s) 1844.60 | Feas 63 15000.70 15000.96 | Inf 60 15001.74 15010.46 | Div 0.04 0.09 | Feas 0.24 1.00 | Pen 0.52 0.10
It  82000   1877 | T(s) 1854.33 | Feas 44 15000.70 15001.02 | Inf 52 15001.96 15008.43 | Div 0.04 0.09 | Feas 0.06 1.00 | Pen 0.54 0.10
It  82500   2377 | T(s) 1863.93 | Feas 60 15000.70 15001.14 | Inf 25 15002.06 15020.85 | Div 0.04 0.12 | Feas 0.25 1.00 | Pen 0.56 0.10
It  83000    300 | T(s) 1872.99 | Feas 65 15000.70 15000.80 | Inf 43 15001.33 15008.53 | Div 0.03 0.09 | Feas 0.16 1.00 | Pen 0.48 0.10
It  83500    800 | T(s) 1886.77 | Feas 27 15000.70 15002.08 | Inf 30 15001.52 15009.48 | Div 0.06 0.10 | Feas 0.23 1.00 | Pen 0.50 0.10
It  84000     79 | T(s) 1899.61 | Feas 50 14999.78 15001.04 | Inf 64 15001.62 15002.71 | Div 0.04 0.06 | Feas 0.24 1.00 | Pen 0.51 0.10
It  84500    579 | T(s) 1911.30 | Feas 61 14999.78 15000.83 | Inf 53 15001.72 15002.45 | Div 0.03 0.06 | Feas 0.21 1.00 | Pen 0.52 0.10
It  85000   1079 | T(s) 1919.91 | Feas 43 14999.78 15001.43 | Inf 38 15001.93 15002.60 | Div 0.05 0.06 | Feas 0.14 1.00 | Pen 0.54 0.10
It  85500   1579 | T(s) 1929.92 | Feas 40 14999.78 15001.64 | Inf 26 15002.04 15006.75 | Div 0.06 0.07 | Feas 0.25 1.00 | Pen 0.55 0.10
It  86000     43 | T(s) 1942.63 | Feas 32 14998.84 15031.40 | Inf 59 15001.10 15009.78 | Div 0.12 0.07 | Feas 0.23 1.00 | Pen 0.58 0.10
It  86500    543 | T(s) 1955.40 | Feas 64 14998.84 15002.18 | Inf 38 15000.14 15009.68 | Div 0.07 0.09 | Feas 0.30 1.00 | Pen 0.50 0.10
It  87000   1043 | T(s) 1964.54 | Feas 37 14998.84 15001.99 | Inf 30 14999.79 15010.88 | Div 0.07 0.09 | Feas 0.07 1.00 | Pen 0.52 0.10
It  87500    126 | T(s) 1972.91 | Feas 34 14998.84 15002.16 | Inf 47 14999.79 15005.82 | Div 0.07 0.08 | Feas 0.20 1.00 | Pen 0.52 0.10
It  88000    626 | T(s) 1981.34 | Feas 58 14998.84 15000.02 | Inf 27 14999.10 15011.65 | Div 0.05 0.10 | Feas 0.27 1.00 | Pen 0.45 0.10
It  88500   1126 | T(s) 1992.30 | Feas 35 14998.84 15000.00 | Inf 27 14999.28 15018.25 | Div 0.05 0.11 | Feas 0.30 1.00 | Pen 0.47 0.10
It  89000    122 | T(s) 2003.66 | Feas 39 14998.76 14999.61 | Inf 50 14999.47 15002.94 | Div 0.04 0.07 | Feas 0.16 1.00 | Pen 0.49 0.10
It  89500    622 | T(s) 2013.78 | Feas 57 14998.76 14999.34 | Inf 41 14998.42 15014.74 | Div 0.03 0.10 | Feas 0.19 1.00 | Pen 0.51 0.10
It  90000   1122 | T(s) 2025.66 | Feas 57 14998.76 14999.69 | Inf 60 14998.42 15005.77 | Div 0.05 0.08 | Feas 0.22 1.00 | Pen 0.51 0.10
It  90500   1622 | T(s) 2035.36 | Feas 61 14998.76 15001.08 | Inf 49 14998.52 15006.90 | Div 0.06 0.09 | Feas 0.09 1.00 | Pen 0.52 0.10
It  91000   2122 | T(s) 2046.51 | Feas 30 14998.76 15000.92 | Inf 47 14998.52 15009.98 | Div 0.06 0.09 | Feas 0.21 1.00 | Pen 0.52 0.10
It  91500   2622 | T(s) 2057.67 | Feas 64 14998.76 14999.74 | Inf 27 14997.83 15010.31 | Div 0.05 0.09 | Feas 0.29 1.00 | Pen 0.45 0.10
It  92000   3122 | T(s) 2068.88 | Feas 26 14998.76 15020.78 | Inf 29 14998.95 15002.83 | Div 0.11 0.07 | Feas 0.11 1.00 | Pen 0.56 0.10
It  92500    237 | T(s) 2078.27 | Feas 52 14998.57 14999.86 | Inf 27 14999.05 15011.27 | Div 0.05 0.09 | Feas 0.18 1.00 | Pen 0.57 0.10
It  93000    737 | T(s) 2087.15 | Feas 25 14998.57 15010.76 | Inf 41 14998.39 15000.15 | Div 0.10 0.05 | Feas 0.31 1.00 | Pen 0.51 0.10
It  93500   1237 | T(s) 2095.26 | Feas 52 14998.57 15000.57 | Inf 28 14998.49 15002.97 | Div 0.06 0.07 | Feas 0.20 1.00 | Pen 0.52 0.10
It  94000    261 | T(s) 2103.90 | Feas 45 14998.55 14999.84 | Inf 54 14998.59 14999.57 | Div 0.05 0.04 | Feas 0.24 1.00 | Pen 0.53 0.10
It  94500    761 | T(s) 2112.43 | Feas 33 14998.55 14999.87 | Inf 33 14997.89 15000.61 | Div 0.06 0.06 | Feas 0.34 1.00 | Pen 0.46 0.10
It  95000     85 | T(s) 2120.85 | Feas 48 14998.55 14999.23 | Inf 55 14999.02 15000.38 | Div 0.04 0.04 | Feas 0.12 1.00 | Pen 0.57 0.10
It  95500    585 | T(s) 2128.97 | Feas 42 14998.55 14999.47 | Inf 26 14998.27 14999.87 | Div 0.05 0.05 | Feas 0.33 1.00 | Pen 0.49 0.10
It  96000   1085 | T(s) 2136.69 | Feas 37 14998.55 14999.17 | Inf 53 14998.27 14999.40 | Div 0.04 0.04 | Feas 0.22 1.00 | Pen 0.49 0.10
It  96500   1585 | T(s) 2144.28 | Feas 61 14998.55 14999.02 | Inf 48 14998.47 14999.19 | Div 0.03 0.03 | Feas 0.09 1.00 | Pen 0.51 0.10
It  97000    434 | T(s) 2152.17 | Feas 49 14998.55 14999.31 | Inf 35 14998.67 15000.36 | Div 0.04 0.04 | Feas 0.12 1.00 | Pen 0.53 0.10
It  97500    934 | T(s) 2160.35 | Feas 38 14998.55 15002.68 | Inf 31 14998.89 14999.65 | Div 0.06 0.04 | Feas 0.07 1.00 | Pen 0.56 0.10
It  98000    121 | T(s) 2168.35 | Feas 50 14998.55 14998.73 | Inf 49 14998.25 14998.71 | Div 0.03 0.03 | Feas 0.34 1.00 | Pen 0.49 0.10
It  98500    621 | T(s) 2176.26 | Feas 40 14998.55 14999.04 | Inf 33 14998.25 14999.57 | Div 0.04 0.04 | Feas 0.25 1.00 | Pen 0.49 0.10
It  99000   1121 | T(s) 2184.08 | Feas 33 14998.55 14998.90 | Inf 64 14998.35 14999.13 | Div 0.04 0.03 | Feas 0.06 1.00 | Pen 0.50 0.10
It  99500   1621 | T(s) 2192.33 | Feas 25 14998.55 15001.22 | Inf 52 14997.68 14998.49 | Div 0.05 0.04 | Feas 0.27 1.00 | Pen 0.43 0.10
It 100000   2121 | T(s) 2199.92 | Feas 44 14998.55 14998.84 | Inf 58 14998.65 14998.74 | Div 0.03 0.02 | Feas 0.24 1.00 | Pen 0.53 0.10
It 100500   2621 | T(s) 2207.39 | Feas 45 14998.55 14998.89 | Inf 40 14998.87 14999.22 | Div 0.03 0.03 | Feas 0.21 1.00 | Pen 0.55 0.10
It 101000   3121 | T(s) 2217.86 | Feas 48 14998.55 14998.91 | Inf 63 14999.09 14999.21 | Div 0.03 0.02 | Feas 0.15 1.00 | Pen 0.58 0.10
It 101500   3621 | T(s) 2228.81 | Feas 47 14998.55 14998.77 | Inf 36 14998.32 14998.85 | Div 0.03 0.03 | Feas 0.19 1.00 | Pen 0.50 0.10
It 102000   4121 | T(s) 2240.00 | Feas 31 14998.55 14998.91 | Inf 28 14998.42 15000.00 | Div 0.04 0.04 | Feas 0.25 1.00 | Pen 0.51 0.10
It 102500   4621 | T(s) 2250.53 | Feas 65 14998.55 14998.77 | Inf 55 14998.53 14998.86 | Div 0.03 0.03 | Feas 0.09 1.00 | Pen 0.52 0.10
It 103000   5121 | T(s) 2257.91 | Feas 61 14998.55 14998.62 | Inf 34 14998.74 14999.63 | Div 0.02 0.03 | Feas 0.14 1.00 | Pen 0.54 0.10
It 103500   5621 | T(s) 2265.12 | Feas 59 14998.55 14998.58 | Inf 51 14998.11 14998.36 | Div 0.02 0.03 | Feas 0.41 1.00 | Pen 0.48 0.10
It 104000   6121 | T(s) 2272.70 | Feas 58 14998.55 14998.60 | Inf 30 14998.21 14999.87 | Div 0.02 0.04 | Feas 0.19 1.00 | Pen 0.49 0.10
It 104500   6621 | T(s) 2280.17 | Feas 47 14998.55 14998.66 | Inf 65 14999.18 14999.42 | Div 0.03 0.03 | Feas 0.14 1.00 | Pen 0.58 0.10
It 105000   7121 | T(s) 2287.81 | Feas 42 14998.55 14998.70 | Inf 46 14998.40 14998.99 | Div 0.03 0.03 | Feas 0.19 1.00 | Pen 0.51 0.10
It 105500   7621 | T(s) 2295.56 | Feas 49 14998.55 14998.64 | Inf 40 14998.51 14998.91 | Div 0.03 0.03 | Feas 0.07 1.00 | Pen 0.52 0.10
It 106000   8121 | T(s) 2302.80 | Feas 33 14998.55 14998.78 | Inf 63 14997.91 14998.03 | Div 0.03 0.02 | Feas 0.28 1.00 | Pen 0.46 0.10
It 106500   8621 | T(s) 2310.35 | Feas 60 14998.55 14998.57 | Inf 44 14997.38 14997.86 | Div 0.02 0.03 | Feas 0.26 1.00 | Pen 0.40 0.10
It 107000   9121 | T(s) 2318.51 | Feas 50 14998.55 14999.01 | Inf 28 14998.38 15004.27 | Div 0.04 0.06 | Feas 0.34 1.00 | Pen 0.50 0.10
It 107500   9621 | T(s) 2326.86 | Feas 36 14998.55 14999.75 | Inf 62 14998.59 15001.63 | Div 0.04 0.05 | Feas 0.07 1.00 | Pen 0.53 0.10
It 108000  10121 | T(s) 2334.98 | Feas 61 14998.55 14998.63 | Inf 54 14998.80 14999.41 | Div 0.03 0.03 | Feas 0.12 1.00 | Pen 0.55 0.10
It 108500  10621 | T(s) 2342.64 | Feas 41 14998.55 14998.61 | Inf 57 14998.17 14999.05 | Div 0.03 0.03 | Feas 0.41 1.00 | Pen 0.48 0.10
It 109000  11121 | T(s) 2350.31 | Feas 39 14998.55 14998.61 | Inf 44 14998.26 14999.66 | Div 0.03 0.04 | Feas 0.16 1.00 | Pen 0.49 0.10
It 109500  11621 | T(s) 2357.87 | Feas 40 14998.55 14998.76 | Inf 49 14997.61 14998.45 | Div 0.03 0.04 | Feas 0.27 1.00 | Pen 0.43 0.10
It 110000  12121 | T(s) 2365.61 | Feas 47 14998.55 14998.65 | Inf 54 14998.67 14999.09 | Div 0.03 0.03 | Feas 0.09 1.00 | Pen 0.53 0.10
It 110500  12621 | T(s) 2373.25 | Feas 29 14998.55 14999.11 | Inf 39 14998.05 14998.38 | Div 0.04 0.03 | Feas 0.27 1.00 | Pen 0.47 0.10
It 111000  13121 | T(s) 2380.90 | Feas 29 14998.55 14998.82 | Inf 55 14998.24 14998.67 | Div 0.04 0.03 | Feas 0.21 1.00 | Pen 0.49 0.10
It 111500  13621 | T(s) 2388.38 | Feas 28 14998.55 14998.74 | Inf 38 14998.34 14999.53 | Div 0.03 0.04 | Feas 0.24 1.00 | Pen 0.50 0.10
It 112000  14121 | T(s) 2396.31 | Feas 48 14998.55 14998.72 | Inf 65 14998.44 14999.20 | Div 0.03 0.04 | Feas 0.24 1.00 | Pen 0.51 0.10
It 112500  14621 | T(s) 2403.74 | Feas 62 14998.55 14998.55 | Inf 55 14997.85 14999.26 | Div 0.02 0.04 | Feas 0.28 1.00 | Pen 0.45 0.10
It 113000  15121 | T(s) 2410.99 | Feas 42 14998.55 14998.62 | Inf 45 14998.97 14999.23 | Div 0.03 0.03 | Feas 0.08 1.00 | Pen 0.56 0.10
It 113500  15621 | T(s) 2417.49 | Feas 32 14998.55 14998.61 | Inf 48 14998.13 15000.30 | Div 0.03 0.04 | Feas 0.24 1.00 | Pen 0.48 0.10
It 114000  16121 | T(s) 2426.00 | Feas 65 14998.55 14998.56 | Inf 35 14998.22 14999.45 | Div 0.02 0.04 | Feas 0.18 1.00 | Pen 0.49 0.10
It 114500  16621 | T(s) 2433.60 | Feas 42 14998.55 14998.76 | Inf 31 14999.20 15000.40 | Div 0.03 0.04 | Feas 0.14 1.00 | Pen 0.59 0.10
It 115000  17121 | T(s) 2442.80 | Feas 44 14998.55 14998.80 | Inf 53 14998.32 15001.22 | Div 0.03 0.05 | Feas 0.17 1.00 | Pen 0.50 0.10
It 115500  17621 | T(s) 2451.31 | Feas 58 14998.55 14998.61 | Inf 37 14998.32 15002.22 | Div 0.02 0.05 | Feas 0.24 1.00 | Pen 0.50 0.10
It 116000  18121 | T(s) 2459.37 | Feas 45 14998.55 14998.72 | Inf 65 14998.42 14998.82 | Div 0.03 0.03 | Feas 0.24 1.00 | Pen 0.51 0.10
It 116500  18621 | T(s) 2466.95 | Feas 48 14998.55 14998.72 | Inf 39 14997.83 14998.96 | Div 0.03 0.04 | Feas 0.32 1.00 | Pen 0.45 0.10
It 117000  19121 | T(s) 2474.71 | Feas 33 14998.55 14998.62 | Inf 33 14998.01 14999.96 | Div 0.03 0.04 | Feas 0.29 1.00 | Pen 0.47 0.10
It 117500  19621 | T(s) 2482.91 | Feas 65 14998.55 14998.61 | Inf 60 14998.20 14999.57 | Div 0.02 0.04 | Feas 0.18 1.00 | Pen 0.49 0.10
----- GENETIC ALGORITHM FINISHED AFTER 117881 ITERATIONS. TIME SPENT: 2489.08
----- WRITING BEST SOLUTION IN : baseline_results/cvrp_hgs/Vrp-Set-Li-n761/Vrp-Set-Li-n761-hgs/0.hgs1.tour
