experiment/data/hgs-res/Vrp-Set-Li-n761/Vrp-Set-Li-n761-hgs/0.hgs1.tour
Route #1: 189 265 266 342 418 419 420 421 422 423 424 425 426 427 428 429 430 431 432 433 434 435 511 510 509 508 507 506 505 504 503 502 501 500 499 498 497 496 495 494 493 417 341 340 264 188
Route #2: 137 290 366 442 518 517 516 592 668 667 666 665 664 663 662 661 660 659 658 657 656 655 654 653 652 651 650 649 648 647 646 645 644 643 642 566 490 414 338 262 186 109
Route #3: 185 261 337 413 489 565 641 717 718 719 720 721 722 723 724 725 726 727 728 729 730 731 732 733 734 735 736 737 738 739 740 741 742 743 744 745 746 670 669 593 594 595 519 443 367 291
Route #4: 60 136 289 365 441 440 439 438 437 436 512 513 514 515 591 590 589 588 587 586 585 584 583 582 581 580 579 578 577 576 575 574 573 572 571 570 569 568 567 491 492 416 415 339 263 187
Route #5: 35 36 37 38 39 40 41 42 118 119 120 121 122 123 124 125 126 127 128 129 130 131 132 133 134 135 59 58 57 56 55 54 53 52 51 50 49 48 47 46 45 44 43
Route #6: 117 269 270 271 272 273 274 275 276 277 278 279 280 281 282 283 284 285 286 287 288 364 363 362 361 360 359 358 357 356 355 354 353 352 351 350 349 348 347 346 345 344 343 267 268 116
Route #7: 61 62 63 138 139 215 214 213 212 211 210 209 208 207 206 205 204 203 202 201 200 199 198 197 196 195 194 193 192 191 190 115 114 113 112 111 110 34 33
Route #8: 65 141 217 293 369 445 521 597 673 674 675 676 677 678 679 680 681 682 683 684 609 610 611 612 613 689 688 687 686 685 760 759 758 757 756 755 754 753 752 751 750 749 748 747 671 672 596 520 444 368 292 216 140 64
Route #9: 145 221 220 296 297 373 372 448 449 450 451 452 453 454 455 456 381 382 383 384 385 386 387 463 462 461 460 459 458 457 532 531 530 529 528 527 526 525 524 523 447 371 295 219 143 144
Route #10: 146 222 223 299 298 374 375 376 377 378 379 380 305 306 307 308 309 310 311 312 313 314 315 239 238 237 236 235 234 233 232 231 230 229 304 303 302 301 300 224 148 147
Route #11: 142 218 294 370 446 522 598 599 600 601 602 603 604 605 606 607 608 533 534 535 536 537 538 539 540 541 542 543 544 468 467 466 465 464 388 389 390 391 392 316 240 164 88 87
Route #12: 86 85 84 83 82 81 80 79 78 77 152 151 150 149 225 226 227 228 153 154 155 156 157 158 159 160 161 162 163 165 166 167 168 169 170 171 172 96 95 94 93 92 91 90
Route #13: 31 30 29 28 27 26 25 24 23 22 21 20 19 18 17 16 15 14 13 12 11 10 9 8 7 6 5 4 3 2 1 76 75 74 73 72 71 70 69 68 67 66
Route #14: 89 241 317 393 469 545 546 622 621 620 619 618 617 616 615 614 690 691 692 693 694 695 696 697 698 699 700 701 702 703 704 705 706 707 708 709 710 711 712 713 714 715 716 640 564 488 412 336 260 184
Route #15: 99 98 97 173 174 175 176 252 251 250 249 248 247 246 245 244 243 242 318 319 320 321 322 323 324 325 326 327 328 329 330 331 255 254 253 177 178 179 103 102 101 100
Route #16: 104 180 256 332 408 407 406 405 404 403 402 401 400 399 398 397 396 395 394 470 471 472 473 474 475 476 477 478 479 480 481 482 483 484 485 410 334 258 182 183 106 107 108 32
Route #17: 259 335 411 487 563 639 638 637 636 635 634 633 632 631 630 629 628 627 626 625 624 623 547 548 549 550 551 552 553 554 555 556 557 558 559 560 561 562 486 409 333 257 181 105
Cost 14998.5
